50
 1 49 224
 2 323 438
 3 730 753
 4 464 889
 5 412 951
 6 158 977
 7 432 924
 8 670 137
 9 285 610
 10 804 778
 11 486 465
 12 116 576
 13 383 21
 14 603 589
 15 439 256
 16 874 381
 17 841 777
 18 445 550
 19 374 864
 20 794 737
 21 101 812
 22 181 105
 23 954 259
 24 488 287
 25 172 998
 26 184 968
 27 239 719
 28 995 260
 29 634 624
 30 981 539
 31 68 761
 32 297 461
 33 384 812
 34 757 694
 35 159 993
 36 566 629
 37 68 177
 38 418 280
 39 162 818
 40 589 838
 41 546 398
 42 451 808
 43 729 448
 44 5 877
 45 470 412
 46 878 592
 47 857 322
 48 37 320
 49 975 935
 50 869 900
 5000
